% demand
num_movements = 28;
loading_factor = [1950, 1700, 1750, 1200, 1550, 900, 1550, 1850, 1000, 2000, 1650, 1150, 1600, 1350, 1050, 1100, 950, 1550, 1450, 1250, 2000, 1850, 1450, 1350, 1100, 1250, 1650, 900];
pickup_time = [0, 0, 1, 1, 1, 1, 1, 2, 2, 3, 3, 3, 5, 5, 5, 5, 5, 5, 5, 8, 8, 9, 9, 10, 10, 10, 10, 10];
delivery_time = [3, 1, 7, 2, 5, 5, 2, 5, 3, 5, 4, 5, 7, 7, 7, 8, 8, 7, 12, 10, 10, 12, 12, 12, 12, 12, 12, 12];

% transporter definition
total_capacity = 11000;
num_decks = 4;
capacity = [3000, 3000, 1000, 4000];

% ways out of decks
num_ways_out = 2;
paths_out = array3d(decks, ways_out, decks, [
% ways out of deck d1
2, 4, 0, 0, 3, 4, 0, 0, 

% ways out of deck d2
4, 0, 0, 0, 0, 0, 0, 0,	

% ways out of deck d3
4, 0, 0, 0, 0, 0, 0, 0,	

% ways out of deck d4
0, 0, 0, 0,	0, 0, 0, 0,	

]);

